NAME: random98
TYPE: TSP
DIMENSION: 98
EDGE_WEIGHT_TYPE: EXPLICIT
EDGE_WEIGHT_FORMAT: FULL_MATRIX
EDGE_WEIGHT_SECTION
0 615 615 38 615 615 34 44 34 26 27 28 615 615 15 9 21 615 615 615 29 615 615 615 615 11 34 615 615 615 615 615 31 13 615 615 615 615 615 42 39 15 25 615 615 615 33 33 51 19 31 615 615 615 26 21 40 615 615 615 36 26 33 615 615 26 31 14 615 6 615 17 615 34 615 615 16 31 615 615 18 19 615 52 615 615 615 615 19 615 615 615 25 615 615 615 615 24
615 0 615 615 615 615 615 615 14 615 615 615 70 11 615 615 28 23 34 22 615 615 615 615 615 615 615 615 615 615 615 615 615 615 615 615 615 30 24 615 615 615 615 43 615 615 38 615 615 615 615 21 615 615 615 615 33 615 615 14 21 22 615 615 32 615 615 615 13 47 615 615 16 19 615 31 615 615 615 615 33 615 615 615 23 615 615 615 39 615 615 46 30 615 615 17 615 34
615 615 0 30 16 615 47 615 615 56 26 615 615 615 615 615 615 615 615 615 77 9 43 8 32 615 21 25 23 615 26 615 25 37 19 615 24 615 615 23 31 615 29 615 21 26 615 50 44 32 25 615 615 30 25 615 615 30 37 615 615 615 31 82 615 615 23 37 615 615 615 615 615 615 9 615 615 25 34 19 45 615 615 48 615 615 615 615 615 41 8 615 43 40 615 615 615 615
38 615 30 0 32 3 615 615 30 615 615 615 615 615 615 615 25 615 23 615 615 33 615 23 615 615 12 615 23 615 615 19 10 28 11 7 8 615 615 615 615 615 16 615 27 16 615 615 615 25 615 615 615 615 23 615 7 615 615 615 19 32 615 615 615 615 615 615 28 42 1 615 615 22 23 10 615 11 615 615 24 615 23 615 20 615 21 615 47 615 23 615 18 615 615 615 23 615
615 615 16 32 0 615 615 615 615 615 615 615 615 615 615 615 615 615 615 615 615 9 27 13 16 615 29 39 12 615 9 30 33 615 24 29 24 615 615 40 615 615 615 615 8 19 615 615 615 615 615 615 32 615 38 615 615 14 615 615 615 615 615 615 615 615 39 615 615 615 32 615 615 615 12 615 615 615 49 3 615 615 17 64 615 615 615 615 615 57 12 615 615 24 24 615 28 615
615 615 615 3 615 0 615 615 615 615 615 615 615 615 615 615 25 615 21 615 615 615 615 25 615 615 15 615 23 615 615 17 13 615 13 5 9 615 25 615 615 615 18 615 615 16 615 615 615 615 615 615 615 615 615 615 5 615 615 615 17 615 615 615 615 615 615 615 26 615 2 615 615 20 25 7 615 14 615 615 24 615 23 615 17 22 19 29 615 615 615 34 18 615 615 33 21 615
34 615 47 615 615 615 0 70 615 15 25 40 615 615 615 28 615 615 615 615 43 56 615 615 78 33 615 33 615 615 615 615 615 31 615 615 615 615 615 25 17 615 40 615 615 615 615 4 19 32 24 615 615 20 32 22 615 615 21 615 615 615 16 49 615 44 25 28 615 39 615 38 615 615 615 615 615 615 23 615 47 32 615 19 615 615 615 615 615 21 615 615 615 615 615 615 615 615
44 615 615 615 615 615 70 0 51 56 615 33 615 58 34 44 50 66 615 37 31 615 615 615 615 38 615 96 615 615 615 615 615 615 615 615 615 615 615 615 615 29 615 16 615 615 20 67 89 615 615 57 615 615 615 49 615 615 615 62 615 45 615 26 29 28 615 615 615 38 615 32 42 615 615 615 28 615 615 615 51 38 615 90 615 615 615 615 28 91 615 615 615 615 615 615 615 28
34 14 615 30 615 615 615 51 0 615 615 615 615 24 45 43 14 36 34 15 615 615 615 615 615 43 615 615 615 615 615 615 33 35 615 615 615 41 27 615 615 32 32 39 615 615 31 615 615 615 615 32 615 615 615 615 25 615 615 28 12 9 615 615 32 615 615 615 6 33 615 615 16 9 615 25 34 33 615 615 19 615 615 615 21 615 615 615 28 615 615 615 17 615 615 25 615 24
26 615 56 615 615 615 15 56 615 0 31 25 615 615 23 18 47 615 615 615 28 65 615 615 87 21 615 47 615 615 615 615 615 30 615 615 615 615 615 37 30 36 42 615 615 615 615 11 34 33 31 615 615 33 36 8 615 615 35 615 615 615 27 34 615 29 33 27 615 29 615 25 615 615 615 615 35 615 38 615 43 18 615 34 615 615 615 615 42 36 615 615 615 615 615 615 615 615
27 615 26 615 615 615 25 615 615 31 0 49 615 615 615 28 615 615 615 615 52 35 615 28 615 34 20 27 615 615 615 615 21 16 25 615 615 615 615 15 16 615 17 615 615 615 615 27 32 12 4 615 615 18 8 33 615 615 27 615 615 615 11 615 615 615 4 13 615 33 615 615 615 615 615 615 615 20 26 615 30 39 615 35 615 615 615 615 615 615 615 615 32 615 615 615 615 615
28 615 615 615 615 615 40 33 615 25 49 0 615 615 13 22 615 615 615 615 3 615 615 615 615 17 615 71 615 615 615 615 615 40 615 615 615 615 615 615 54 25 615 43 615 615 37 37 59 45 615 615 615 615 615 19 615 615 615 615 615 615 49 9 615 6 615 39 615 25 615 11 615 615 615 615 22 615 615 615 615 10 615 59 615 615 615 615 29 61 615 615 615 615 615 615 615 615
615 70 615 615 615 615 615 615 615 615 615 615 0 79 615 615 615 85 36 615 615 40 12 615 21 615 615 70 25 24 24 28 615 615 615 615 615 56 46 615 615 615 615 615 26 29 615 615 615 615 615 89 8 615 615 615 615 18 615 80 615 615 615 615 615 615 615 615 63 615 615 615 615 615 615 45 615 615 615 615 615 615 22 615 48 28 33 25 615 615 615 29 615 12 7 56 23 615
615 11 615 615 615 615 615 58 24 615 615 615 79 0 615 615 38 12 615 27 615 615 615 615 615 615 615 615 615 615 615 615 615 615 615 615 615 32 33 615 615 615 615 42 615 615 40 615 615 615 615 10 615 615 615 615 615 615 615 4 32 31 615 615 30 615 615 615 24 615 615 615 18 30 615 615 615 615 615 615 615 615 615 615 33 615 615 615 615 615 615 53 615 615 615 24 615 39
15 615 615 615 615 615 615 34 45 23 615 13 615 615 0 11 34 615 615 37 14 615 615 615 615 5 615 615 615 615 615 615 615 28 615 615 615 615 615 615 615 15 40 39 615 615 31 615 615 615 615 615 615 615 615 16 615 615 615 615 615 36 615 19 46 11 615 27 615 12 615 2 615 47 615 615 13 615 615 615 32 7 615 615 615 615 615 615 20 615 615 615 39 615 615 615 615 26
9 615 615 615 615 615 28 44 43 18 28 22 615 615 11 0 30 615 615 615 24 615 615 615 615 6 615 52 615 615 615 615 615 18 615 615 615 615 615 41 36 19 31 615 615 615 37 26 46 23 31 615 615 615 29 12 615 615 615 615 615 34 31 29 615 22 32 17 615 11 615 13 615 43 615 615 19 615 615 615 27 12 615 47 615 615 615 615 24 47 615 615 34 615 615 615 615 30
21 28 615 25 615 25 615 50 14 47 615 615 615 38 34 30 0 615 615 20 615 615 615 615 615 32 27 615 615 615 615 615 23 21 32 615 32 615 615 615 615 24 20 42 615 615 32 615 615 23 615 46 615 615 28 42 22 615 615 42 15 9 615 615 39 43 615 24 17 22 25 35 27 13 615 24 26 23 615 615 4 40 615 615 26 615 615 615 23 615 615 615 7 615 615 36 615 22
615 23 615 615 615 615 615 66 36 615 615 615 85 12 615 615 615 0 50 38 615 615 96 615 615 615 615 615 615 615 615 615 615 615 615 615 615 32 40 615 615 615 615 50 615 615 49 615 615 615 615 10 77 615 615 615 615 615 615 9 615 615 615 615 37 615 615 615 35 615 615 615 29 615 615 615 615 615 615 615 615 615 615 615 43 615 615 60 615 615 615 57 615 93 85 30 615 615
615 34 615 23 615 21 615 615 34 615 615 615 36 615 615 615 615 50 0 615 615 615 46 615 615 615 615 615 615 13 615 12 615 615 615 19 25 27 10 615 615 615 615 615 615 23 615 615 615 615 615 615 28 615 615 615 18 615 615 44 23 615 615 615 615 615 615 615 28 615 23 615 615 26 615 16 615 615 615 615 615 615 26 615 13 9 4 13 615 615 615 15 32 44 35 20 16 615
615 22 615 615 615 615 615 37 15 615 615 615 615 27 37 615 20 38 615 0 615 615 615 615 615 615 615 615 615 615 615 615 615 615 615 615 615 615 615 615 615 23 615 25 615 615 17 615 615 615 615 31 615 615 615 615 615 615 615 31 26 11 615 47 19 42 615 615 20 28 615 37 10 23 615 615 25 615 615 615 23 615 615 615 35 615 615 615 18 615 615 615 26 615 615 38 615 12
29 615 77 615 615 615 43 31 615 28 52 3 615 615 14 24 615 615 615 615 0 86 615 615 106 18 615 73 615 615 615 615 615 42 615 615 615 615 615 62 56 25 615 41 615 615 36 39 62 47 615 615 615 615 615 21 615 615 63 615 615 615 52 6 615 5 615 41 615 26 615 13 615 615 615 615 23 615 66 615 615 12 615 62 615 615 615 615 30 64 615 615 615 615 615 615 615 615
615 615 9 33 9 615 56 615 615 65 35 615 40 615 615 615 615 615 615 615 86 0 35 10 23 615 27 30 19 615 17 615 31 615 23 615 26 615 615 32 40 615 35 615 16 25 615 59 52 40 34 615 615 38 33 615 615 23 44 615 615 615 39 91 615 615 32 615 615 615 615 615 615 615 10 615 615 31 41 11 615 615 25 55 615 615 615 615 615 48 10 615 615 32 33 615 615 615
615 615 43 615 27 615 615 615 615 615 615 615 12 615 615 615 615 96 46 615 615 35 0 39 13 615 615 65 615 34 18 615 615 615 615 615 615 68 56 67 615 615 615 615 25 615 615 615 615 615 615 615 20 615 615 615 615 13 615 90 615 615 615 615 615 615 615 615 615 615 615 615 615 615 615 615 615 615 76 24 615 615 26 90 615 615 615 36 615 83 38 40 615 3 11 66 31 615
615 615 8 23 13 25 615 615 615 615 28 615 615 615 615 615 615 615 615 615 615 10 39 0 28 615 18 32 16 615 22 30 21 36 13 23 17 615 615 29 36 615 26 615 15 18 615 615 615 31 28 615 615 36 25 615 31 26 615 615 615 615 35 615 615 615 26 615 615 615 24 615 615 615 1 615 615 22 40 15 42 615 21 54 615 615 615 615 615 48 1 615 38 36 615 615 30 615
615 615 32 615 16 615 78 615 615 87 615 615 21 615 615 615 615 615 615 615 106 23 13 28 0 615 44 53 20 615 6 615 615 615 37 615 615 71 615 55 63 615 615 615 17 28 615 82 74 615 56 615 26 61 53 615 615 6 67 615 615 615 62 111 615 615 54 615 615 615 615 615 615 615 27 615 615 615 63 13 615 615 22 78 615 615 615 615 615 71 27 45 615 10 15 615 31 615
11 615 615 615 615 615 33 38 43 21 34 17 615 615 5 6 32 615 615 615 18 615 615 615 615 0 615 615 615 615 615 615 615 23 615 615 615 615 615 615 615 15 36 615 615 615 33 31 615 29 615 615 615 615 615 14 615 615 615 615 615 34 37 615 615 16 615 23 615 10 615 7 615 45 615 615 14 615 615 615 29 8 615 52 615 615 615 615 21 615 615 615 36 615 615 615 615 27
34 615 21 12 29 15 615 615 615 615 20 615 615 615 615 615 27 615 615 615 615 27 615 18 44 615 0 38 25 615 38 615 4 21 7 17 12 615 615 30 34 615 9 615 27 21 615 615 615 16 22 615 615 36 12 615 19 615 615 615 28 615 30 615 615 615 20 23 615 38 12 615 615 29 18 615 615 4 42 31 24 615 615 53 615 615 615 615 615 49 18 615 21 615 615 615 615 615
615 615 25 615 39 615 33 96 615 47 27 71 70 615 615 52 615 615 615 615 73 30 65 32 53 615 38 0 615 615 47 615 41 615 39 615 615 615 615 12 17 615 41 615 45 615 615 37 22 38 23 615 615 14 33 52 615 53 15 615 615 615 21 79 615 73 23 40 615 615 615 615 615 615 33 615 615 41 11 42 615 615 53 25 615 615 615 615 615 19 33 615 615 62 63 615 615 615
615 615 23 23 12 23 615 615 615 615 615 615 25 615 615 615 615 615 615 615 615 19 615 16 20 615 25 615 0 25 16 18 28 615 19 19 16 615 615 615 615 615 615 615 4 8 615 615 615 615 615 615 24 615 615 615 615 15 615 615 615 615 615 615 615 615 615 615 615 615 23 615 615 615 15 28 615 615 615 12 615 615 5 615 615 23 26 28 615 615 15 34 615 23 19 615 16 615
615 615 615 615 615 615 615 615 615 615 615 615 24 615 615 615 615 615 13 615 615 615 34 615 615 615 615 615 25 0 615 11 615 615 615 23 28 34 23 615 615 615 615 615 29 21 615 615 615 615 615 615 15 615 615 615 615 32 615 615 615 615 615 615 615 615 615 615 615 615 615 615 615 615 38 25 615 615 615 615 615 615 20 615 26 6 11 3 615 615 615 9 615 32 24 615 9 615
615 615 26 615 9 615 615 615 615 615 615 615 24 615 615 615 615 615 615 615 615 17 18 22 6 615 38 47 16 615 0 615 615 615 32 615 30 615 615 49 615 615 615 615 12 24 615 615 615 615 615 615 28 615 47 615 615 6 615 615 615 615 615 615 615 615 48 615 615 615 615 615 615 615 21 615 615 615 58 7 615 615 18 72 615 615 615 615 615 66 21 615 615 15 18 615 29 615
615 615 615 19 30 17 615 615 615 615 615 615 28 615 615 615 615 615 12 615 615 615 615 30 615 615 615 615 18 11 615 0 615 615 24 12 17 615 22 615 615 615 615 615 22 12 615 615 615 615 615 615 22 615 615 615 18 29 615 615 28 615 615 615 615 615 615 615 35 615 18 615 615 31 29 16 615 615 615 615 615 615 14 615 21 6 8 13 615 615 29 19 33 615 26 32 5 615
31 615 25 10 33 13 615 615 33 615 21 615 615 615 615 615 23 615 615 615 615 31 615 21 615 615 4 41 28 615 615 615 0 19 9 16 13 615 615 33 615 615 6 615 30 22 615 615 615 15 615 615 615 615 13 615 16 615 615 615 24 32 615 615 615 615 22 615 33 36 11 615 615 26 22 19 615 1 615 615 21 615 615 615 28 615 615 615 44 615 22 615 17 615 615 615 615 615
13 615 37 28 615 615 31 615 35 30 16 40 615 615 28 18 21 615 615 615 42 615 615 36 615 23 21 615 615 615 615 615 19 0 27 615 615 615 615 31 30 28 13 615 615 615 615 32 45 6 19 615 615 615 12 28 31 615 615 615 32 29 24 615 615 615 19 4 615 19 615 615 615 31 615 615 29 18 615 615 16 30 615 47 615 615 615 615 31 615 615 615 20 615 615 615 615 615
615 615 19 11 24 13 615 615 615 615 25 615 615 615 615 615 32 615 615 615 615 23 615 13 37 615 7 39 19 615 32 24 9 27 0 13 7 615 615 33 615 615 15 615 21 15 615 615 615 23 615 615 615 615 18 615 18 33 615 615 29 615 615 615 615 615 25 615 615 615 11 615 615 32 13 20 615 10 615 26 29 615 22 615 615 615 615 615 615 615 13 615 25 615 615 615 26 615
615 615 615 7 29 5 615 615 615 615 615 615 615 615 615 615 615 615 19 615 615 615 615 23 615 615 17 615 19 23 615 12 16 615 13 0 6 615 26 615 615 615 615 615 23 11 615 615 615 615 615 615 32 615 615 615 9 33 615 615 22 615 615 615 615 615 615 615 30 615 6 615 615 25 23 10 615 615 615 615 615 615 18 615 19 18 16 25 615 615 23 31 23 615 34 34 16 615
615 615 24 8 24 9 615 615 615 615 615 615 615 615 615 615 32 615 25 615 615 26 615 17 615 615 12 615 16 28 30 17 13 615 7 6 0 615 615 615 615 615 19 615 19 9 615 615 615 615 615 615 34 615 25 615 14 31 615 615 26 615 615 615 615 615 615 615 615 615 8 615 615 29 16 15 615 14 615 25 31 615 17 615 25 23 22 615 615 615 17 615 25 615 33 615 19 615
615 30 615 615 615 615 615 615 41 615 615 615 56 32 615 615 615 32 27 615 615 615 68 615 71 615 615 615 615 34 615 615 615 615 615 615 615 0 20 615 615 615 615 73 615 615 615 615 615 615 615 40 48 615 615 615 615 66 615 30 38 615 615 615 62 615 615 615 35 615 615 615 46 39 615 38 615 615 615 615 615 615 52 615 29 34 31 32 615 615 615 27 615 66 58 16 41 615
615 24 615 615 615 25 615 615 27 615 615 615 46 33 615 615 615 40 10 615 615 615 56 615 615 615 615 615 615 23 615 22 615 615 615 26 615 20 0 615 615 615 615 615 615 615 615 615 615 615 615 43 38 615 615 615 21 615 615 33 20 615 615 615 615 615 615 615 21 615 615 615 39 22 615 18 615 615 615 615 615 615 36 615 10 19 14 22 615 615 615 21 31 54 46 10 26 615
42 615 23 615 40 615 25 615 615 37 15 615 615 615 615 41 615 615 615 615 62 32 67 29 55 615 30 12 615 615 49 615 33 31 33 615 615 615 615 0 8 615 31 615 615 615 615 29 22 27 12 615 615 7 22 615 615 54 14 615 615 615 10 68 615 615 12 28 615 615 615 615 615 615 31 615 615 32 12 42 615 615 615 25 615 615 615 615 615 19 30 615 615 64 615 615 615 615
39 615 31 615 615 615 17 615 615 30 16 54 615 615 615 36 615 615 615 615 56 40 615 36 63 615 34 17 615 615 615 615 615 30 615 615 615 615 615 8 0 615 615 615 615 615 615 21 16 27 13 615 615 4 24 35 615 615 11 615 615 615 6 62 615 615 14 27 615 615 615 615 615 615 615 615 615 615 11 615 615 615 615 19 615 615 615 615 615 15 615 615 615 615 615 615 615 615
15 615 615 615 615 615 615 29 32 36 615 25 615 615 15 19 24 615 615 23 25 615 615 615 615 15 615 615 615 615 615 615 615 28 615 615 615 615 615 615 615 0 37 28 615 615 18 615 615 615 615 615 615 615 615 29 615 615 615 615 615 23 615 27 33 21 615 29 615 10 615 15 615 36 615 615 2 615 615 615 24 21 615 615 615 615 615 615 5 615 615 615 31 615 615 615 615 11
25 615 29 16 615 18 40 615 32 42 17 615 615 615 40 31 20 615 615 615 615 35 615 26 615 36 9 41 615 615 615 615 6 13 15 615 19 615 615 31 615 37 0 615 615 615 615 615 615 9 21 615 615 615 9 615 20 615 615 615 25 30 28 615 615 615 19 15 33 30 16 615 615 26 26 23 39 6 615 615 17 615 615 615 32 615 615 615 39 615 27 615 16 615 615 615 615 615
615 43 615 615 615 615 615 16 39 615 615 43 615 42 39 615 42 50 615 25 41 615 615 615 615 615 615 615 615 615 615 615 615 615 615 615 615 73 615 615 615 28 615 0 615 615 10 615 615 615 615 40 615 615 615 615 615 615 615 45 615 34 615 39 13 37 615 615 615 37 615 38 27 615 615 615 28 615 615 615 615 615 615 94 615 615 615 615 24 615 615 615 615 615 615 60 615 21
615 615 21 27 8 615 615 615 615 615 615 615 26 615 615 615 615 615 615 615 615 16 25 15 17 615 27 45 4 29 12 22 30 615 21 23 19 615 615 615 615 615 615 615 0 12 615 615 615 615 615 615 25 615 615 615 615 12 615 615 615 615 615 615 615 615 615 615 615 615 27 615 615 615 14 615 615 615 615 8 615 615 9 615 615 27 615 31 615 615 14 38 615 21 19 615 20 615
615 615 26 16 19 16 615 615 615 615 615 615 29 615 615 615 615 615 23 615 615 25 615 18 28 615 21 615 8 21 24 12 22 615 15 11 9 615 615 615 615 615 615 615 12 0 615 615 615 615 615 615 25 615 615 615 20 23 615 615 32 615 615 615 615 615 615 615 615 615 16 615 615 615 17 20 615 615 615 20 615 615 8 615 28 18 19 24 615 615 17 30 33 30 24 615 12 615
33 38 615 615 615 615 615 20 31 615 615 37 615 40 31 37 32 49 615 17 36 615 615 615 615 33 615 615 615 615 615 615 615 615 615 615 615 615 615 615 615 18 615 10 615 615 0 615 615 615 615 40 615 615 615 615 615 615 615 44 615 25 615 35 16 32 615 615 37 27 615 30 22 39 615 615 19 615 615 615 34 37 615 84 615 615 615 615 13 615 615 615 39 615 615 615 615 10
33 615 50 615 615 615 4 67 615 11 27 37 615 615 615 26 615 615 615 615 39 59 615 615 82 31 615 37 615 615 615 615 615 32 615 615 615 615 615 29 21 615 615 615 615 615 615 0 23 33 27 615 615 24 615 18 615 615 25 615 615 615 20 45 615 40 615 28 615 37 615 35 615 615 615 615 615 615 28 615 615 29 615 23 615 615 615 615 615 25 615 615 615 615 615 615 615 615
51 615 44 615 615 615 19 89 615 34 32 59 615 615 615 46 615 615 615 615 62 52 615 615 74 615 615 22 615 615 615 615 615 45 615 615 615 615 615 22 16 615 615 615 615 615 615 23 0 43 29 615 615 15 615 41 615 615 7 615 615 615 21 68 615 63 30 41 615 615 615 615 615 615 615 615 615 615 11 615 615 615 615 3 615 615 615 615 615 3 615 615 615 615 615 615 615 615
19 615 32 25 615 615 32 615 615 33 12 45 615 615 615 23 23 615 615 615 47 40 615 31 615 29 16 38 615 615 615 615 15 6 23 615 615 615 615 27 27 615 9 615 615 615 615 33 43 0 15 615 615 615 7 32 29 615 615 615 32 615 22 615 615 615 15 7 615 25 615 615 615 32 615 615 615 14 615 615 19 35 615 45 615 615 615 615 615 615 615 615 21 615 615 615 615 615
31 615 25 615 615 615 24 615 615 31 4 615 615 615 615 31 615 615 615 615 615 34 615 28 56 615 22 23 615 615 615 615 615 19 615 615 615 615 615 12 13 615 21 615 615 615 615 27 29 15 0 615 615 15 12 615 615 615 23 615 615 615 8 615 615 615 2 17 615 615 615 615 615 615 615 615 615 615 22 615 615 615 615 32 615 615 615 615 615 28 615 615 615 615 615 615 615 615
615 21 615 615 615 615 615 57 32 615 615 615 89 10 615 615 46 10 615 31 615 615 615 615 615 615 615 615 615 615 615 615 615 615 615 615 615 40 43 615 615 615 615 40 615 615 40 615 615 615 615 0 615 615 615 615 615 615 615 10 615 37 615 75 27 71 615 615 33 615 615 615 21 40 615 615 55 615 615 615 615 615 615 615 44 615 615 615 48 615 615 62 615 615 615 33 615 42
615 615 615 615 32 615 615 615 615 615 615 615 8 615 615 615 615 77 28 615 615 615 20 615 26 615 615 615 24 15 28 22 615 615 615 32 34 48 38 615 615 615 615 615 25 25 615 615 615 615 615 615 0 615 615 615 615 22 615 71 615 615 615 615 615 615 615 615 615 615 615 615 615 615 39 38 615 615 615 31 615 615 19 615 41 20 26 16 615 615 615 20 615 19 11 47 16 615
615 615 30 615 615 615 20 615 615 33 18 615 615 615 615 615 615 615 615 615 615 38 615 36 61 615 36 14 615 615 615 615 615 615 615 615 615 615 615 7 4 615 615 615 615 615 615 24 15 615 15 615 615 0 26 615 615 615 9 615 615 615 9 615 615 615 16 30 615 615 615 615 615 615 615 615 615 615 8 615 615 615 615 18 615 615 615 615 615 13 615 615 615 615 615 615 615 615
26 615 25 23 38 615 32 615 615 36 8 615 615 615 615 29 28 615 615 615 615 33 615 25 53 615 12 33 615 615 47 615 13 12 18 615 25 615 615 22 24 615 9 615 615 615 615 615 615 7 12 615 615 26 0 615 29 615 615 615 34 615 19 615 615 615 10 12 615 31 615 615 615 35 26 615 615 12 34 40 24 615 615 43 615 615 615 615 615 39 26 615 24 615 615 615 615 615
21 615 615 615 615 615 22 49 615 8 33 19 615 615 16 12 42 615 615 615 21 615 615 615 615 14 615 52 615 615 615 615 615 28 615 615 615 615 615 615 35 29 615 615 615 615 615 18 41 32 615 615 615 615 615 0 615 615 615 615 615 615 31 27 615 22 615 25 615 23 615 17 615 615 615 615 28 615 615 615 39 11 615 41 615 615 615 615 35 42 615 615 615 615 615 615 615 615
40 33 615 7 615 5 615 615 25 615 615 615 615 615 615 615 22 615 18 615 615 615 615 31 615 615 19 615 615 615 615 18 16 31 18 9 14 615 21 615 615 615 20 615 615 20 615 615 615 29 615 615 615 615 29 615 0 615 615 615 13 28 615 615 615 615 615 615 21 42 7 615 615 16 30 3 615 17 615 615 23 615 615 615 12 21 17 29 45 615 615 33 16 615 615 28 23 615
615 615 30 615 14 615 615 615 615 615 615 615 18 615 615 615 615 615 615 615 615 23 13 26 6 615 615 53 15 32 6 29 615 615 33 33 31 66 615 54 615 615 615 615 12 23 615 615 615 615 615 615 22 615 615 615 615 0 615 615 615 615 615 615 615 615 615 615 615 615 615 615 615 615 25 615 615 615 63 11 615 615 16 77 615 33 615 34 615 71 25 40 615 10 12 615 25 615
615 615 37 615 615 615 21 615 615 35 27 615 615 615 615 615 615 615 615 615 63 44 615 615 67 615 615 15 615 615 615 615 615 615 615 615 615 615 615 14 11 615 615 615 615 615 615 25 7 615 23 615 615 9 615 615 615 615 0 615 615 615 17 69 615 615 25 38 615 615 615 615 615 615 615 615 615 615 4 615 615 615 615 11 615 615 615 615 615 5 615 615 615 615 615 615 615 615
615 14 615 615 615 615 615 62 28 615 615 615 80 4 615 615 42 9 44 31 615 615 90 615 615 615 615 615 615 615 615 615 615 615 615 615 615 30 33 615 615 615 615 45 615 615 44 615 615 615 615 10 71 615 615 615 615 615 615 0 35 35 615 615 33 615 615 615 27 615 615 615 22 33 615 44 615 615 615 615 615 615 615 615 35 615 615 55 615 615 615 53 615 87 79 24 615 615
36 21 615 19 615 17 615 615 12 615 615 615 615 32 615 615 15 615 23 26 615 615 615 615 615 615 28 615 615 615 615 28 24 32 29 22 26 38 20 615 615 615 25 615 615 32 615 615 615 32 615 615 615 615 34 615 13 615 615 35 0 17 615 615 615 615 615 615 9 37 19 615 28 3 615 12 615 25 615 615 18 615 615 615 11 30 24 36 36 615 615 38 12 615 615 22 33 615
26 22 615 32 615 615 615 45 9 615 615 615 615 31 36 34 9 615 615 11 615 615 615 615 615 34 615 615 615 615 615 615 32 29 615 615 615 615 615 615 615 23 30 34 615 615 25 615 615 615 615 37 615 615 615 615 28 615 615 35 17 0 615 615 30 43 615 615 14 24 615 36 18 14 615 615 25 32 615 615 13 615 615 615 28 615 615 615 20 615 615 615 15 615 615 34 615 16
33 615 31 615 615 615 16 615 615 27 11 49 615 615 615 31 615 615 615 615 52 39 615 35 62 37 30 21 615 615 615 615 615 24 615 615 615 615 615 10 6 615 28 615 615 615 615 20 21 22 8 615 615 9 19 31 615 615 17 615 615 615 0 58 615 615 10 21 615 39 615 615 615 615 615 615 615 615 17 615 40 40 615 24 615 615 615 615 615 20 615 615 615 615 615 615 615 615
615 615 82 615 615 615 49 26 615 34 615 9 615 615 19 29 615 615 615 47 6 91 615 615 111 615 615 79 615 615 615 615 615 615 615 615 615 615 615 68 62 27 615 39 615 615 35 45 68 615 615 75 615 615 615 27 615 615 69 615 615 615 58 0 49 7 615 46 615 30 615 17 615 615 615 615 24 615 72 615 615 18 615 68 615 615 615 615 30 70 615 615 615 615 615 615 615 36
615 32 615 615 615 615 615 29 32 615 615 615 615 30 46 615 39 37 615 19 615 615 615 615 615 615 615 615 615 615 615 615 615 615 615 615 615 62 615 615 615 33 615 13 615 615 16 615 615 615 615 27 615 615 615 615 615 615 615 33 615 30 615 49 0 47 615 615 37 41 615 45 17 41 615 615 34 615 615 615 615 615 615 615 615 615 615 615 27 615 615 615 615 615 615 50 615 22
26 615 615 615 615 615 44 28 615 29 615 6 615 615 11 22 43 615 615 42 5 615 615 615 615 16 615 73 615 615 615 615 615 615 615 615 615 615 615 615 615 21 615 37 615 615 32 40 63 615 615 71 615 615 615 22 615 615 615 615 615 43 615 7 47 0 615 38 615 22 615 9 615 615 615 615 18 615 615 615 42 12 615 63 615 615 615 615 25 64 615 615 615 615 615 615 615 30
31 615 23 615 39 615 25 615 615 33 4 615 615 615 615 32 615 615 615 615 615 32 615 26 54 615 20 23 615 615 48 615 22 19 25 615 615 615 615 12 14 615 19 615 615 615 615 615 30 15 2 615 615 16 10 615 615 615 25 615 615 615 10 615 615 615 0 17 615 615 615 615 615 615 27 615 615 22 23 41 33 615 615 33 615 615 615 615 615 29 27 615 35 615 615 615 615 615
14 615 37 615 615 615 28 615 615 27 13 39 615 615 27 17 24 615 615 615 41 615 615 615 615 23 23 40 615 615 615 615 615 4 615 615 615 615 615 28 27 29 15 615 615 615 615 28 41 7 17 615 615 30 12 25 615 615 38 615 615 615 21 46 615 38 17 0 615 20 615 29 615 615 615 615 30 21 38 615 20 29 615 43 615 615 615 615 33 41 615 615 24 615 615 615 615 615
615 13 615 28 615 26 615 615 6 615 615 615 63 24 615 615 17 35 28 20 615 615 615 615 615 615 615 615 615 615 615 35 33 615 615 30 615 35 21 615 615 615 33 615 615 615 37 615 615 615 615 33 615 615 615 615 21 615 615 27 9 14 615 615 37 615 615 615 0 38 615 615 20 7 615 21 615 33 615 615 21 615 615 615 15 36 30 41 34 615 615 42 17 615 615 20 615 30
6 47 615 42 615 615 39 38 33 29 33 25 615 615 12 11 22 615 615 28 26 615 615 615 615 10 38 615 615 615 615 615 36 19 615 615 615 615 615 615 615 10 30 37 615 615 27 37 615 25 615 615 615 615 31 23 42 615 615 615 37 24 39 30 41 22 615 20 38 0 615 14 38 35 615 615 10 35 615 615 20 18 615 57 615 615 615 615 14 615 615 615 27 615 615 615 615 19
615 615 615 1 32 2 615 615 615 615 615 615 615 615 615 615 25 615 23 615 615 615 615 24 615 615 12 615 23 615 615 18 11 615 11 6 8 615 615 615 615 615 16 615 27 16 615 615 615 615 615 615 615 615 615 615 7 615 615 615 19 615 615 615 615 615 615 615 615 615 0 615 615 21 23 9 615 12 615 615 24 615 23 615 19 23 21 615 615 615 24 615 18 615 615 615 22 615
17 615 615 615 615 615 38 32 615 25 615 11 615 615 2 13 35 615 615 37 13 615 615 615 615 7 615 615 615 615 615 615 615 615 615 615 615 615 615 615 615 15 615 38 615 615 30 35 615 615 615 615 615 615 615 17 615 615 615 615 615 36 615 17 45 9 615 29 615 14 615 0 615 615 615 615 13 615 615 615 34 7 615 58 615 615 615 615 20 615 615 615 615 615 615 615 615 26
615 16 615 615 615 615 615 42 16 615 615 615 615 18 615 615 27 29 615 10 615 615 615 615 615 615 615 615 615 615 615 615 615 615 615 615 615 46 39 615 615 615 615 27 615 615 22 615 615 615 615 21 615 615 615 615 615 615 615 22 28 18 615 615 17 615 615 615 20 38 615 615 0 25 615 615 34 615 615 615 31 615 615 615 35 615 615 615 27 615 615 615 32 615 615 33 615 21
34 19 615 22 615 20 615 615 9 615 615 615 615 30 47 43 13 615 26 23 615 615 615 615 615 45 29 615 615 615 615 31 26 31 32 25 29 39 22 615 615 36 26 615 615 615 39 615 615 32 615 40 615 615 35 615 16 615 615 33 3 14 615 615 41 615 615 615 7 35 21 615 25 0 615 16 38 26 615 615 16 615 615 615 13 615 28 615 33 615 615 615 11 615 615 23 615 31
615 615 9 23 12 25 615 615 615 615 615 615 615 615 615 615 615 615 615 615 615 10 615 1 27 615 18 33 15 38 21 29 22 615 13 23 16 615 615 31 615 615 26 615 14 17 615 615 615 615 615 615 39 615 26 615 30 25 615 615 615 615 615 615 615 615 27 615 615 615 23 615 615 615 0 32 615 22 615 14 615 615 20 615 615 35 36 615 615 615 1 615 38 34 33 615 29 615
615 31 615 10 615 7 615 615 25 615 615 615 45 615 615 615 24 615 16 615 615 615 615 615 615 615 615 615 28 25 615 16 19 615 20 10 15 38 18 615 615 615 23 615 615 20 615 615 615 615 615 615 38 615 615 615 3 615 615 44 12 615 615 615 615 615 615 615 21 615 9 615 615 16 32 0 615 20 615 615 25 615 26 615 10 19 15 27 615 615 615 30 18 615 615 26 21 615
16 615 615 615 615 615 615 28 34 35 615 22 615 615 13 19 26 615 615 25 23 615 615 615 615 14 615 615 615 615 615 615 615 29 615 615 615 615 615 615 615 2 39 28 615 615 19 615 615 615 615 55 615 615 615 28 615 615 615 615 615 25 615 24 34 18 615 30 615 10 615 13 34 38 615 615 0 615 615 615 26 20 615 66 615 615 615 615 7 615 615 615 33 615 615 615 615 13
31 615 25 11 615 14 615 615 33 615 20 615 615 615 615 615 23 615 615 615 615 31 615 22 615 615 4 41 615 615 615 615 1 18 10 615 14 615 615 32 615 615 6 615 615 615 615 615 615 14 615 615 615 615 12 615 17 615 615 615 25 32 615 615 615 615 22 21 33 35 12 615 615 26 22 20 615 0 615 615 20 615 615 615 29 615 615 615 43 615 22 615 17 615 615 615 615 615
615 615 34 615 49 615 23 615 615 38 26 615 615 615 615 615 615 615 615 615 66 41 76 40 63 615 42 11 615 615 58 615 615 615 615 615 615 615 615 12 11 615 615 615 615 615 615 28 11 615 22 615 615 8 34 615 615 63 4 615 615 615 17 72 615 615 23 38 615 615 615 615 615 615 615 615 615 615 0 52 615 615 615 14 615 615 615 615 615 8 41 615 615 73 615 615 615 615
615 615 19 615 3 615 615 615 615 615 615 615 615 615 615 615 615 615 615 615 615 11 24 15 13 615 31 42 12 615 7 615 615 615 26 615 25 615 615 42 615 615 615 615 8 20 615 615 615 615 615 615 31 615 40 615 615 11 615 615 615 615 615 615 615 615 41 615 615 615 615 615 615 615 14 615 615 615 52 0 615 615 17 66 615 615 615 615 615 60 14 615 615 21 22 615 28 615
18 33 45 24 615 24 47 51 19 43 30 615 615 615 32 27 4 615 615 23 615 615 615 42 615 29 24 615 615 615 615 615 21 16 29 615 31 615 615 615 615 24 17 615 615 615 34 615 615 19 615 615 615 615 24 39 23 615 615 615 18 13 40 615 615 42 33 20 21 20 24 34 31 16 615 25 26 20 615 615 0 37 615 615 28 615 615 615 24 615 615 615 7 615 615 615 615 24
19 615 615 615 615 615 32 38 615 18 39 10 615 615 7 12 40 615 615 615 12 615 615 615 615 8 615 615 615 615 615 615 615 30 615 615 615 615 615 615 615 21 615 615 615 615 37 29 615 35 615 615 615 615 615 11 615 615 615 615 615 615 40 18 615 12 615 29 615 18 615 7 615 615 615 615 20 615 615 615 37 0 615 52 615 615 615 615 27 615 615 615 615 615 615 615 615 615
615 615 615 23 17 23 615 615 615 615 615 615 22 615 615 615 615 615 26 615 615 25 26 21 22 615 615 53 5 20 18 14 615 615 22 18 17 52 36 615 615 615 615 615 9 8 615 615 615 615 615 615 19 615 615 615 615 16 615 615 615 615 615 615 615 615 615 615 615 615 23 615 615 615 20 26 615 615 615 17 615 615 0 615 615 18 22 22 615 615 20 29 615 22 17 615 11 615
52 615 48 615 64 615 19 90 615 34 35 59 615 615 615 47 615 615 615 615 62 55 90 54 78 52 53 25 615 615 72 615 615 47 615 615 615 615 615 25 19 615 615 94 615 615 84 23 3 45 32 615 615 18 43 41 615 77 11 615 615 615 24 68 615 63 33 43 615 57 615 58 615 615 615 615 66 615 14 66 615 52 615 0 615 615 615 615 615 6 55 615 615 87 615 615 615 615
615 23 615 20 615 17 615 615 21 615 615 615 48 33 615 615 26 43 13 35 615 615 615 615 615 615 615 615 615 26 615 21 28 615 615 19 25 29 10 615 615 615 32 615 615 28 615 615 615 615 615 44 41 615 615 615 12 615 615 35 11 28 615 615 615 615 615 615 15 615 19 615 35 13 615 10 615 29 615 615 28 615 615 615 0 21 15 26 615 615 615 28 21 615 615 16 26 615
615 615 615 615 615 22 615 615 615 615 615 615 28 615 615 615 615 615 9 615 615 615 615 615 615 615 615 615 23 6 615 6 615 615 615 18 23 34 19 615 615 615 615 615 27 18 615 615 615 615 615 615 20 615 615 615 21 33 615 615 30 615 615 615 615 615 615 615 36 615 23 615 615 615 35 19 615 615 615 615 615 615 18 615 21 0 5 8 615 615 615 13 615 615 27 29 7 615
615 615 615 21 615 19 615 615 615 615 615 615 33 615 615 615 615 615 4 615 615 615 615 615 615 615 615 615 26 11 615 8 615 615 615 16 22 31 14 615 615 615 615 615 615 19 615 615 615 615 615 615 26 615 615 615 17 615 615 615 24 615 615 615 615 615 615 615 30 615 21 615 615 28 36 15 615 615 615 615 615 615 22 615 15 5 0 12 615 615 615 16 32 615 615 24 12 615
615 615 615 615 615 29 615 615 615 615 615 615 25 615 615 615 615 60 13 615 615 615 36 615 615 615 615 615 28 3 615 13 615 615 615 25 615 32 22 615 615 615 615 615 31 24 615 615 615 615 615 615 16 615 615 615 29 34 615 55 36 615 615 615 615 615 615 615 41 615 615 615 615 615 615 27 615 615 615 615 615 615 22 615 26 8 12 0 615 615 615 7 615 34 26 31 12 615
19 39 615 47 615 615 615 28 28 42 615 29 615 615 20 24 23 615 615 18 30 615 615 615 615 21 615 615 615 615 615 615 44 31 615 615 615 615 615 615 615 5 39 24 615 615 13 615 615 615 615 48 615 615 615 35 45 615 615 615 36 20 615 30 27 25 615 33 34 14 615 20 27 33 615 615 7 43 615 615 24 27 615 615 615 615 615 615 0 615 615 615 30 615 615 615 615 6
615 615 41 615 57 615 21 91 615 36 615 61 615 615 615 47 615 615 615 615 64 48 83 48 71 615 49 19 615 615 66 615 615 615 615 615 615 615 615 19 15 615 615 615 615 615 615 25 3 615 28 615 615 13 39 42 615 71 5 615 615 615 20 70 615 64 29 41 615 615 615 615 615 615 615 615 615 615 8 60 615 615 615 6 615 615 615 615 615 0 49 615 615 81 615 615 615 615
615 615 8 23 12 615 615 615 615 615 615 615 615 615 615 615 615 615 615 615 615 10 38 1 27 615 18 33 15 615 21 29 22 615 13 23 17 615 615 30 615 615 27 615 14 17 615 615 615 615 615 615 615 615 26 615 615 25 615 615 615 615 615 615 615 615 27 615 615 615 24 615 615 615 1 615 615 22 41 14 615 615 20 55 615 615 615 615 615 49 0 615 615 34 615 615 29 615
615 46 615 615 615 34 615 615 615 615 615 615 29 53 615 615 615 57 15 615 615 615 40 615 45 615 615 615 34 9 615 19 615 615 615 31 615 27 21 615 615 615 615 615 38 30 615 615 615 615 615 62 20 615 615 615 33 40 615 53 38 615 615 615 615 615 615 615 42 615 615 615 615 615 615 30 615 615 615 615 615 615 29 615 28 13 16 7 615 615 615 0 615 39 31 29 18 615
25 30 43 18 615 18 615 615 17 615 32 615 615 615 39 34 7 615 32 26 615 615 615 38 615 36 21 615 615 615 615 33 17 20 25 23 25 615 31 615 615 31 16 615 615 33 39 615 615 21 615 615 615 615 24 615 16 615 615 615 12 15 615 615 615 615 35 24 17 27 18 615 32 11 38 18 33 17 615 615 7 615 615 615 21 615 32 615 30 615 615 615 0 615 615 34 615 29
615 615 40 615 24 615 615 615 615 615 615 615 12 615 615 615 615 93 44 615 615 32 3 36 10 615 615 62 23 32 15 615 615 615 615 615 615 66 54 64 615 615 615 615 21 30 615 615 615 615 615 615 19 615 615 615 615 10 615 87 615 615 615 615 615 615 615 615 615 615 615 615 615 615 34 615 615 615 73 21 615 615 22 87 615 615 615 34 615 81 34 39 615 0 8 64 29 615
615 615 615 615 24 615 615 615 615 615 615 615 7 615 615 615 615 85 35 615 615 33 11 615 15 615 615 63 19 24 18 26 615 615 615 34 33 58 46 615 615 615 615 615 19 24 615 615 615 615 615 615 11 615 615 615 615 12 615 79 615 615 615 615 615 615 615 615 615 615 615 615 615 615 33 615 615 615 615 22 615 615 17 615 615 27 615 26 615 615 615 31 615 8 0 55 21 615
615 17 615 615 615 33 615 615 25 615 615 615 56 24 615 615 36 30 20 38 615 615 66 615 615 615 615 615 615 615 615 32 615 615 615 34 615 16 10 615 615 615 615 60 615 615 615 615 615 615 615 33 47 615 615 615 28 615 615 24 22 34 615 615 50 615 615 615 20 615 615 615 33 23 615 26 615 615 615 615 615 615 615 615 16 29 24 31 615 615 615 29 34 64 55 0 615 615
615 615 615 23 28 21 615 615 615 615 615 615 23 615 615 615 615 615 16 615 615 615 31 30 31 615 615 615 16 9 29 5 615 615 26 16 19 41 26 615 615 615 615 615 20 12 615 615 615 615 615 615 16 615 615 615 23 25 615 615 33 615 615 615 615 615 615 615 615 615 22 615 615 615 29 21 615 615 615 28 615 615 11 615 26 7 12 12 615 615 29 18 615 29 21 615 0 615
24 34 615 615 615 615 615 28 24 615 615 615 615 39 26 30 22 615 615 12 615 615 615 615 615 27 615 615 615 615 615 615 615 615 615 615 615 615 615 615 615 11 615 21 615 615 10 615 615 615 615 42 615 615 615 615 615 615 615 615 615 16 615 36 22 30 615 615 30 19 615 26 21 31 615 615 13 615 615 615 24 615 615 615 615 615 615 615 6 615 615 615 29 615 615 615 615 0
EOF
